<instance format="XCSP3" type="COP">
  <variables>
    <array id="s" note="s[i] is the city succeeding to the ith city (itself if not part of the route)" size="[9]"> 0..8 </array>
    <array id="d" note="d[i] is the distance (seen as a travel cost) between cities i and its successor" size="[9]">
      <domain for="d[0]"> 0 6 9 </domain>
      <domain for="d[1]"> 0 8 14 15 </domain>
      <domain for="d[2]"> 0 5 15 </domain>
      <domain for="d[3]"> 0 7 9 19 </domain>
      <domain for="d[4]"> 0 4 10 14 18 </domain>
      <domain for="d[5]"> 0 3 13 15 </domain>
      <domain for="d[6]"> 0 3 17 </domain>
      <domain for="d[7]"> 0 10 13 17 </domain>
      <domain for="d[8]"> 0 11 20 </domain>
    </array>
    <array id="l" note="l[i] is the purchase location of the ith product" size="[20]"> 0..7 </array>
    <array id="c" note="c[i] is the purchase cost of the ith product" size="[20]">
      <domain for="c[0]"> 4 6 15 17..19 </domain>
      <domain for="c[1]"> 5 7 10 11 13 17 20 </domain>
      <domain for="c[2]"> 1 2 9 12 19 20 </domain>
      <domain for="c[3]"> 4 7 9 14..16 20 </domain>
      <domain for="c[4]"> 1 4 6 9 13 15 18 20 </domain>
      <domain for="c[5]"> 3 4 8 9 11 16 18 20 </domain>
      <domain for="c[6]"> 6 8 9 13 15 18 20 </domain>
      <domain for="c[7]"> 1 3 7 9 12 14 15 17 </domain>
      <domain for="c[8]"> 1 3 4 11 12 15..17 </domain>
      <domain for="c[9]"> 1 6 7 14 16 18 19 </domain>
      <domain for="c[10]"> 2..4 14 16..18 </domain>
      <domain for="c[11]"> 6..8 11 16 17 </domain>
      <domain for="c[12]"> 2 5 10 11 13 18 19 </domain>
      <domain for="c[13]"> 1 2 5 6 10 12 </domain>
      <domain for="c[14]"> 2 5 8 11 16 17 </domain>
      <domain for="c[15]"> 5 9..11 15 17 18 </domain>
      <domain for="c[16]"> 1 9 10 15 16 </domain>
      <domain for="c[17]"> 1 3 4 9 12 13 17 </domain>
      <domain for="c[18]"> 2 7 11 12 15 16 18 </domain>
      <domain for="c[19]"> 3 4 7 9 10 16..18 </domain>
    </array>
  </variables>
  <constraints>
    <block note="Linking distances to successors">
      <extension>
        <list> s[0] d[0] </list>
        <supports> (0,0)(1,9)(3,6) </supports>
      </extension>
      <extension>
        <list> s[1] d[1] </list>
        <supports> (0,8)(1,0)(2,15)(4,14) </supports>
      </extension>
      <extension>
        <list> s[2] d[2] </list>
        <supports> (1,5)(2,0)(5,15) </supports>
      </extension>
      <extension>
        <list> s[3] d[3] </list>
        <supports> (0,7)(3,0)(4,9)(6,19) </supports>
      </extension>
      <extension>
        <list> s[4] d[4] </list>
        <supports> (1,10)(3,14)(4,0)(5,4)(7,18) </supports>
      </extension>
      <extension>
        <list> s[5] d[5] </list>
        <supports> (2,3)(4,15)(5,0)(8,13) </supports>
      </extension>
      <extension>
        <list> s[6] d[6] </list>
        <supports> (3,3)(6,0)(7,17) </supports>
      </extension>
      <extension>
        <list> s[7] d[7] </list>
        <supports> (4,10)(6,17)(7,0)(8,13) </supports>
      </extension>
      <extension>
        <list> s[8] d[8] </list>
        <supports> (5,11)(7,20)(8,0) </supports>
      </extension>
    </block>
    <block note="Linking purchase locations to purchase costs">
      <extension>
        <list> l[0] c[0] </list>
        <supports> (0,15)(1,18)(2,19)(3,6)(4,15)(5,17)(6,4)(7,4) </supports>
      </extension>
      <extension>
        <list> l[1] c[1] </list>
        <supports> (0,20)(1,13)(2,17)(3,10)(4,5)(5,17)(6,11)(7,7) </supports>
      </extension>
      <extension>
        <list> l[2] c[2] </list>
        <supports> (0,19)(1,1)(2,9)(3,20)(4,9)(5,2)(6,20)(7,12) </supports>
      </extension>
      <extension>
        <list> l[3] c[3] </list>
        <supports> (0,14)(1,9)(2,15)(3,16)(4,4)(5,20)(6,16)(7,7) </supports>
      </extension>
      <extension>
        <list> l[4] c[4] </list>
        <supports> (0,18)(1,1)(2,6)(3,20)(4,4)(5,15)(6,13)(7,9) </supports>
      </extension>
      <extension>
        <list> l[5] c[5] </list>
        <supports> (0,3)(1,18)(2,9)(3,11)(4,8)(5,20)(6,4)(7,16) </supports>
      </extension>
      <extension>
        <list> l[6] c[6] </list>
        <supports> (0,6)(1,13)(2,20)(3,18)(4,8)(5,9)(6,15)(7,18) </supports>
      </extension>
      <extension>
        <list> l[7] c[7] </list>
        <supports> (0,15)(1,14)(2,17)(3,7)(4,1)(5,12)(6,3)(7,9) </supports>
      </extension>
      <extension>
        <list> l[8] c[8] </list>
        <supports> (0,1)(1,17)(2,16)(3,15)(4,12)(5,11)(6,4)(7,3) </supports>
      </extension>
      <extension>
        <list> l[9] c[9] </list>
        <supports> (0,7)(1,16)(2,19)(3,1)(4,14)(5,6)(6,18)(7,16) </supports>
      </extension>
      <extension>
        <list> l[10] c[10] </list>
        <supports> (0,4)(1,17)(2,3)(3,14)(4,18)(5,16)(6,2)(7,17) </supports>
      </extension>
      <extension>
        <list> l[11] c[11] </list>
        <supports> (0,16)(1,6)(2,8)(3,6)(4,7)(5,17)(6,16)(7,11) </supports>
      </extension>
      <extension>
        <list> l[12] c[12] </list>
        <supports> (0,10)(1,19)(2,13)(3,2)(4,18)(5,5)(6,18)(7,11) </supports>
      </extension>
      <extension>
        <list> l[13] c[13] </list>
        <supports> (0,1)(1,10)(2,12)(3,2)(4,6)(5,12)(6,5)(7,10) </supports>
      </extension>
      <extension>
        <list> l[14] c[14] </list>
        <supports> (0,16)(1,5)(2,2)(3,17)(4,11)(5,17)(6,8)(7,16) </supports>
      </extension>
      <extension>
        <list> l[15] c[15] </list>
        <supports> (0,15)(1,5)(2,18)(3,11)(4,10)(5,17)(6,18)(7,9) </supports>
      </extension>
      <extension>
        <list> l[16] c[16] </list>
        <supports> (0,16)(1,1)(2,9)(3,15)(4,9)(5,9)(6,10)(7,1) </supports>
      </extension>
      <extension>
        <list> l[17] c[17] </list>
        <supports> (0,1)(1,12)(2,3)(3,13)(4,4)(5,9)(6,17)(7,1) </supports>
      </extension>
      <extension>
        <list> l[18] c[18] </list>
        <supports> (0,18)(1,7)(2,2)(3,15)(4,11)(5,12)(6,18)(7,16) </supports>
      </extension>
      <extension>
        <list> l[19] c[19] </list>
        <supports> (0,18)(1,4)(2,9)(3,16)(4,17)(5,3)(6,10)(7,7) </supports>
      </extension>
    </block>
    <group note="Purchasing a product at a city is only possible if you visit that city">
      <intension> imp(eq(%0,%1),ne(%2,%3)) </intension>
      <args> s[0] 0 l[0] 0 </args>
      <args> s[0] 0 l[1] 0 </args>
      <args> s[0] 0 l[2] 0 </args>
      <args> s[0] 0 l[3] 0 </args>
      <args> s[0] 0 l[4] 0 </args>
      <args> s[0] 0 l[5] 0 </args>
      <args> s[0] 0 l[6] 0 </args>
      <args> s[0] 0 l[7] 0 </args>
      <args> s[0] 0 l[8] 0 </args>
      <args> s[0] 0 l[9] 0 </args>
      <args> s[0] 0 l[10] 0 </args>
      <args> s[0] 0 l[11] 0 </args>
      <args> s[0] 0 l[12] 0 </args>
      <args> s[0] 0 l[13] 0 </args>
      <args> s[0] 0 l[14] 0 </args>
      <args> s[0] 0 l[15] 0 </args>
      <args> s[0] 0 l[16] 0 </args>
      <args> s[0] 0 l[17] 0 </args>
      <args> s[0] 0 l[18] 0 </args>
      <args> s[0] 0 l[19] 0 </args>
      <args> s[1] 1 l[0] 1 </args>
      <args> s[1] 1 l[1] 1 </args>
      <args> s[1] 1 l[2] 1 </args>
      <args> s[1] 1 l[3] 1 </args>
      <args> s[1] 1 l[4] 1 </args>
      <args> s[1] 1 l[5] 1 </args>
      <args> s[1] 1 l[6] 1 </args>
      <args> s[1] 1 l[7] 1 </args>
      <args> s[1] 1 l[8] 1 </args>
      <args> s[1] 1 l[9] 1 </args>
      <args> s[1] 1 l[10] 1 </args>
      <args> s[1] 1 l[11] 1 </args>
      <args> s[1] 1 l[12] 1 </args>
      <args> s[1] 1 l[13] 1 </args>
      <args> s[1] 1 l[14] 1 </args>
      <args> s[1] 1 l[15] 1 </args>
      <args> s[1] 1 l[16] 1 </args>
      <args> s[1] 1 l[17] 1 </args>
      <args> s[1] 1 l[18] 1 </args>
      <args> s[1] 1 l[19] 1 </args>
      <args> s[2] 2 l[0] 2 </args>
      <args> s[2] 2 l[1] 2 </args>
      <args> s[2] 2 l[2] 2 </args>
      <args> s[2] 2 l[3] 2 </args>
      <args> s[2] 2 l[4] 2 </args>
      <args> s[2] 2 l[5] 2 </args>
      <args> s[2] 2 l[6] 2 </args>
      <args> s[2] 2 l[7] 2 </args>
      <args> s[2] 2 l[8] 2 </args>
      <args> s[2] 2 l[9] 2 </args>
      <args> s[2] 2 l[10] 2 </args>
      <args> s[2] 2 l[11] 2 </args>
      <args> s[2] 2 l[12] 2 </args>
      <args> s[2] 2 l[13] 2 </args>
      <args> s[2] 2 l[14] 2 </args>
      <args> s[2] 2 l[15] 2 </args>
      <args> s[2] 2 l[16] 2 </args>
      <args> s[2] 2 l[17] 2 </args>
      <args> s[2] 2 l[18] 2 </args>
      <args> s[2] 2 l[19] 2 </args>
      <args> s[3] 3 l[0] 3 </args>
      <args> s[3] 3 l[1] 3 </args>
      <args> s[3] 3 l[2] 3 </args>
      <args> s[3] 3 l[3] 3 </args>
      <args> s[3] 3 l[4] 3 </args>
      <args> s[3] 3 l[5] 3 </args>
      <args> s[3] 3 l[6] 3 </args>
      <args> s[3] 3 l[7] 3 </args>
      <args> s[3] 3 l[8] 3 </args>
      <args> s[3] 3 l[9] 3 </args>
      <args> s[3] 3 l[10] 3 </args>
      <args> s[3] 3 l[11] 3 </args>
      <args> s[3] 3 l[12] 3 </args>
      <args> s[3] 3 l[13] 3 </args>
      <args> s[3] 3 l[14] 3 </args>
      <args> s[3] 3 l[15] 3 </args>
      <args> s[3] 3 l[16] 3 </args>
      <args> s[3] 3 l[17] 3 </args>
      <args> s[3] 3 l[18] 3 </args>
      <args> s[3] 3 l[19] 3 </args>
      <args> s[4] 4 l[0] 4 </args>
      <args> s[4] 4 l[1] 4 </args>
      <args> s[4] 4 l[2] 4 </args>
      <args> s[4] 4 l[3] 4 </args>
      <args> s[4] 4 l[4] 4 </args>
      <args> s[4] 4 l[5] 4 </args>
      <args> s[4] 4 l[6] 4 </args>
      <args> s[4] 4 l[7] 4 </args>
      <args> s[4] 4 l[8] 4 </args>
      <args> s[4] 4 l[9] 4 </args>
      <args> s[4] 4 l[10] 4 </args>
      <args> s[4] 4 l[11] 4 </args>
      <args> s[4] 4 l[12] 4 </args>
      <args> s[4] 4 l[13] 4 </args>
      <args> s[4] 4 l[14] 4 </args>
      <args> s[4] 4 l[15] 4 </args>
      <args> s[4] 4 l[16] 4 </args>
      <args> s[4] 4 l[17] 4 </args>
      <args> s[4] 4 l[18] 4 </args>
      <args> s[4] 4 l[19] 4 </args>
      <args> s[5] 5 l[0] 5 </args>
      <args> s[5] 5 l[1] 5 </args>
      <args> s[5] 5 l[2] 5 </args>
      <args> s[5] 5 l[3] 5 </args>
      <args> s[5] 5 l[4] 5 </args>
      <args> s[5] 5 l[5] 5 </args>
      <args> s[5] 5 l[6] 5 </args>
      <args> s[5] 5 l[7] 5 </args>
      <args> s[5] 5 l[8] 5 </args>
      <args> s[5] 5 l[9] 5 </args>
      <args> s[5] 5 l[10] 5 </args>
      <args> s[5] 5 l[11] 5 </args>
      <args> s[5] 5 l[12] 5 </args>
      <args> s[5] 5 l[13] 5 </args>
      <args> s[5] 5 l[14] 5 </args>
      <args> s[5] 5 l[15] 5 </args>
      <args> s[5] 5 l[16] 5 </args>
      <args> s[5] 5 l[17] 5 </args>
      <args> s[5] 5 l[18] 5 </args>
      <args> s[5] 5 l[19] 5 </args>
      <args> s[6] 6 l[0] 6 </args>
      <args> s[6] 6 l[1] 6 </args>
      <args> s[6] 6 l[2] 6 </args>
      <args> s[6] 6 l[3] 6 </args>
      <args> s[6] 6 l[4] 6 </args>
      <args> s[6] 6 l[5] 6 </args>
      <args> s[6] 6 l[6] 6 </args>
      <args> s[6] 6 l[7] 6 </args>
      <args> s[6] 6 l[8] 6 </args>
      <args> s[6] 6 l[9] 6 </args>
      <args> s[6] 6 l[10] 6 </args>
      <args> s[6] 6 l[11] 6 </args>
      <args> s[6] 6 l[12] 6 </args>
      <args> s[6] 6 l[13] 6 </args>
      <args> s[6] 6 l[14] 6 </args>
      <args> s[6] 6 l[15] 6 </args>
      <args> s[6] 6 l[16] 6 </args>
      <args> s[6] 6 l[17] 6 </args>
      <args> s[6] 6 l[18] 6 </args>
      <args> s[6] 6 l[19] 6 </args>
      <args> s[7] 7 l[0] 7 </args>
      <args> s[7] 7 l[1] 7 </args>
      <args> s[7] 7 l[2] 7 </args>
      <args> s[7] 7 l[3] 7 </args>
      <args> s[7] 7 l[4] 7 </args>
      <args> s[7] 7 l[5] 7 </args>
      <args> s[7] 7 l[6] 7 </args>
      <args> s[7] 7 l[7] 7 </args>
      <args> s[7] 7 l[8] 7 </args>
      <args> s[7] 7 l[9] 7 </args>
      <args> s[7] 7 l[10] 7 </args>
      <args> s[7] 7 l[11] 7 </args>
      <args> s[7] 7 l[12] 7 </args>
      <args> s[7] 7 l[13] 7 </args>
      <args> s[7] 7 l[14] 7 </args>
      <args> s[7] 7 l[15] 7 </args>
      <args> s[7] 7 l[16] 7 </args>
      <args> s[7] 7 l[17] 7 </args>
      <args> s[7] 7 l[18] 7 </args>
      <args> s[7] 7 l[19] 7 </args>
      <args> s[8] 8 l[0] 8 </args>
      <args> s[8] 8 l[1] 8 </args>
      <args> s[8] 8 l[2] 8 </args>
      <args> s[8] 8 l[3] 8 </args>
      <args> s[8] 8 l[4] 8 </args>
      <args> s[8] 8 l[5] 8 </args>
      <args> s[8] 8 l[6] 8 </args>
      <args> s[8] 8 l[7] 8 </args>
      <args> s[8] 8 l[8] 8 </args>
      <args> s[8] 8 l[9] 8 </args>
      <args> s[8] 8 l[10] 8 </args>
      <args> s[8] 8 l[11] 8 </args>
      <args> s[8] 8 l[12] 8 </args>
      <args> s[8] 8 l[13] 8 </args>
      <args> s[8] 8 l[14] 8 </args>
      <args> s[8] 8 l[15] 8 </args>
      <args> s[8] 8 l[16] 8 </args>
      <args> s[8] 8 l[17] 8 </args>
      <args> s[8] 8 l[18] 8 </args>
      <args> s[8] 8 l[19] 8 </args>
    </group>
    <circuit> s[] </circuit>
    <intension note="Last city must be visited (we start here)"> ne(s[8],8) </intension>
  </constraints>
  <objectives>
    <minimize type="sum"> d[] c[] </minimize>
  </objectives>
</instance>
